\ LP format - for model browsing. Use MPS format to capture full model detail.
Maximize
obj:   x[5] + x[1] + x[6] + x[2] + x[8] + x[4] + x[9] + x[11] + x[13] + x[14]
   + x[7] + x[15] + x[16] + x[10] + x[12] + x[17] + x[18] + x[19] + x[21]
   + x[22] + x[23] + x[24] + x[25] + x[3] + x[27] + x[28] + x[29] + x[30]
   + x[31] + x[32] + x[33] + x[34] + x[35] + x[36] + x[20] + x[37] + x[38]
   + x[39] + x[26] + x[40] + x[41] + x[42] + x[43] + x[44] + x[45] + x[46]
   + x[47] + x[48] + x[49] + x[50] + x[51] + x[52] + x[53] + x[54] + x[55]
   + x[56] + x[57] + x[58] + x[59] + x[60] + x[61] + x[62] + x[63] + x[64]
   + x[65] + x[66] + x[67] + x[68] + x[69] + x[70] + x[71] + x[72] + x[73]
   + x[74] + x[75] + x[76] + x[77] + x[78] + x[79] + x[80] + x[81] + x[82]
   + x[83] + x[84] + x[85] + x[86] + x[87] + x[88] + x[89] + x[90] + x[91]
   + x[92] + x[93] + x[94] + x[95] + x[96] + x[97] + x[98] + x[99] + x[100]
   + x[101] + x[102] + x[103] + x[104] + x[105] + x[106] + x[107] + x[108]
   + x[109] + x[110] + x[111] + x[112] + x[113] + x[114] + x[115] + x[116]
   + x[117] + x[118] + x[119] + x[120] + x[121] + x[122] + x[123] + x[124]
   + x[125]
Subject To
 edge: x[5] + x[1] <= 1
 edge: x[5] + x[13] <= 1
 edge: x[5] + x[19] <= 1
 edge: x[5] + x[30] <= 1
 edge: x[5] + x[35] <= 1
 edge: x[5] + x[65] <= 1
 edge: x[5] + x[77] <= 1
 edge: x[5] + x[82] <= 1
 edge: x[5] + x[84] <= 1
 edge: x[5] + x[92] <= 1
 edge: x[5] + x[118] <= 1
 edge: x[5] + x[121] <= 1
 edge: x[1] + x[29] <= 1
 edge: x[1] + x[44] <= 1
 edge: x[1] + x[53] <= 1
 edge: x[1] + x[79] <= 1
 edge: x[1] + x[80] <= 1
 edge: x[1] + x[113] <= 1
 edge: x[1] + x[120] <= 1
 edge: x[1] + x[123] <= 1
 edge: x[6] + x[2] <= 1
 edge: x[6] + x[9] <= 1
 edge: x[6] + x[27] <= 1
 edge: x[6] + x[38] <= 1
 edge: x[6] + x[42] <= 1
 edge: x[6] + x[56] <= 1
 edge: x[6] + x[67] <= 1
 edge: x[6] + x[69] <= 1
 edge: x[6] + x[75] <= 1
 edge: x[6] + x[82] <= 1
 edge: x[6] + x[109] <= 1
 edge: x[6] + x[120] <= 1
 edge: x[6] + x[123] <= 1
 edge: x[2] + x[11] <= 1
 edge: x[2] + x[17] <= 1
 edge: x[2] + x[27] <= 1
 edge: x[2] + x[32] <= 1
 edge: x[2] + x[40] <= 1
 edge: x[2] + x[46] <= 1
 edge: x[2] + x[79] <= 1
 edge: x[2] + x[105] <= 1
 edge: x[8] + x[4] <= 1
 edge: x[8] + x[15] <= 1
 edge: x[8] + x[19] <= 1
 edge: x[8] + x[21] <= 1
 edge: x[8] + x[42] <= 1
 edge: x[8] + x[57] <= 1
 edge: x[8] + x[58] <= 1
 edge: x[8] + x[62] <= 1
 edge: x[8] + x[65] <= 1
 edge: x[8] + x[103] <= 1
 edge: x[8] + x[105] <= 1
 edge: x[8] + x[110] <= 1
 edge: x[4] + x[9] <= 1
 edge: x[4] + x[38] <= 1
 edge: x[4] + x[69] <= 1
 edge: x[4] + x[72] <= 1
 edge: x[4] + x[99] <= 1
 edge: x[4] + x[105] <= 1
 edge: x[4] + x[113] <= 1
 edge: x[9] + x[14] <= 1
 edge: x[9] + x[28] <= 1
 edge: x[9] + x[49] <= 1
 edge: x[9] + x[52] <= 1
 edge: x[9] + x[61] <= 1
 edge: x[9] + x[66] <= 1
 edge: x[9] + x[73] <= 1
 edge: x[9] + x[77] <= 1
 edge: x[9] + x[84] <= 1
 edge: x[9] + x[91] <= 1
 edge: x[9] + x[96] <= 1
 edge: x[9] + x[100] <= 1
 edge: x[9] + x[101] <= 1
 edge: x[9] + x[111] <= 1
 edge: x[11] + x[19] <= 1
 edge: x[11] + x[32] <= 1
 edge: x[11] + x[63] <= 1
 edge: x[11] + x[67] <= 1
 edge: x[11] + x[71] <= 1
 edge: x[11] + x[77] <= 1
 edge: x[11] + x[88] <= 1
 edge: x[11] + x[96] <= 1
 edge: x[11] + x[103] <= 1
 edge: x[11] + x[106] <= 1
 edge: x[11] + x[121] <= 1
 edge: x[11] + x[122] <= 1
 edge: x[13] + x[14] <= 1
 edge: x[13] + x[23] <= 1
 edge: x[13] + x[37] <= 1
 edge: x[13] + x[46] <= 1
 edge: x[13] + x[83] <= 1
 edge: x[13] + x[84] <= 1
 edge: x[13] + x[96] <= 1
 edge: x[13] + x[99] <= 1
 edge: x[13] + x[101] <= 1
 edge: x[13] + x[116] <= 1
 edge: x[13] + x[119] <= 1
 edge: x[14] + x[7] <= 1
 edge: x[14] + x[52] <= 1
 edge: x[14] + x[57] <= 1
 edge: x[14] + x[61] <= 1
 edge: x[14] + x[66] <= 1
 edge: x[14] + x[76] <= 1
 edge: x[14] + x[79] <= 1
 edge: x[14] + x[80] <= 1
 edge: x[14] + x[86] <= 1
 edge: x[14] + x[87] <= 1
 edge: x[14] + x[100] <= 1
 edge: x[14] + x[103] <= 1
 edge: x[7] + x[21] <= 1
 edge: x[7] + x[41] <= 1
 edge: x[7] + x[42] <= 1
 edge: x[7] + x[51] <= 1
 edge: x[7] + x[73] <= 1
 edge: x[7] + x[77] <= 1
 edge: x[7] + x[98] <= 1
 edge: x[15] + x[30] <= 1
 edge: x[15] + x[35] <= 1
 edge: x[15] + x[55] <= 1
 edge: x[15] + x[66] <= 1
 edge: x[15] + x[69] <= 1
 edge: x[15] + x[92] <= 1
 edge: x[15] + x[93] <= 1
 edge: x[15] + x[116] <= 1
 edge: x[16] + x[10] <= 1
 edge: x[16] + x[12] <= 1
 edge: x[16] + x[35] <= 1
 edge: x[16] + x[41] <= 1
 edge: x[16] + x[45] <= 1
 edge: x[16] + x[59] <= 1
 edge: x[16] + x[62] <= 1
 edge: x[16] + x[78] <= 1
 edge: x[16] + x[87] <= 1
 edge: x[16] + x[98] <= 1
 edge: x[16] + x[104] <= 1
 edge: x[16] + x[105] <= 1
 edge: x[16] + x[106] <= 1
 edge: x[16] + x[114] <= 1
 edge: x[10] + x[25] <= 1
 edge: x[10] + x[31] <= 1
 edge: x[10] + x[33] <= 1
 edge: x[10] + x[46] <= 1
 edge: x[10] + x[62] <= 1
 edge: x[10] + x[67] <= 1
 edge: x[10] + x[81] <= 1
 edge: x[10] + x[87] <= 1
 edge: x[10] + x[110] <= 1
 edge: x[10] + x[118] <= 1
 edge: x[12] + x[18] <= 1
 edge: x[12] + x[34] <= 1
 edge: x[12] + x[35] <= 1
 edge: x[12] + x[42] <= 1
 edge: x[12] + x[46] <= 1
 edge: x[12] + x[47] <= 1
 edge: x[12] + x[52] <= 1
 edge: x[12] + x[72] <= 1
 edge: x[12] + x[73] <= 1
 edge: x[12] + x[100] <= 1
 edge: x[12] + x[103] <= 1
 edge: x[17] + x[22] <= 1
 edge: x[17] + x[28] <= 1
 edge: x[17] + x[38] <= 1
 edge: x[17] + x[51] <= 1
 edge: x[17] + x[52] <= 1
 edge: x[17] + x[58] <= 1
 edge: x[17] + x[61] <= 1
 edge: x[17] + x[84] <= 1
 edge: x[17] + x[94] <= 1
 edge: x[17] + x[98] <= 1
 edge: x[17] + x[99] <= 1
 edge: x[17] + x[102] <= 1
 edge: x[17] + x[112] <= 1
 edge: x[17] + x[113] <= 1
 edge: x[17] + x[122] <= 1
 edge: x[18] + x[32] <= 1
 edge: x[18] + x[66] <= 1
 edge: x[18] + x[75] <= 1
 edge: x[18] + x[84] <= 1
 edge: x[18] + x[90] <= 1
 edge: x[18] + x[114] <= 1
 edge: x[18] + x[123] <= 1
 edge: x[19] + x[28] <= 1
 edge: x[19] + x[42] <= 1
 edge: x[19] + x[48] <= 1
 edge: x[19] + x[66] <= 1
 edge: x[19] + x[98] <= 1
 edge: x[19] + x[113] <= 1
 edge: x[19] + x[114] <= 1
 edge: x[21] + x[24] <= 1
 edge: x[21] + x[65] <= 1
 edge: x[21] + x[74] <= 1
 edge: x[21] + x[84] <= 1
 edge: x[21] + x[92] <= 1
 edge: x[22] + x[37] <= 1
 edge: x[22] + x[41] <= 1
 edge: x[22] + x[50] <= 1
 edge: x[22] + x[54] <= 1
 edge: x[22] + x[67] <= 1
 edge: x[22] + x[68] <= 1
 edge: x[22] + x[82] <= 1
 edge: x[22] + x[85] <= 1
 edge: x[22] + x[86] <= 1
 edge: x[22] + x[90] <= 1
 edge: x[22] + x[91] <= 1
 edge: x[22] + x[120] <= 1
 edge: x[23] + x[50] <= 1
 edge: x[23] + x[71] <= 1
 edge: x[23] + x[98] <= 1
 edge: x[23] + x[110] <= 1
 edge: x[23] + x[113] <= 1
 edge: x[23] + x[115] <= 1
 edge: x[23] + x[123] <= 1
 edge: x[24] + x[29] <= 1
 edge: x[24] + x[35] <= 1
 edge: x[24] + x[45] <= 1
 edge: x[24] + x[48] <= 1
 edge: x[24] + x[50] <= 1
 edge: x[24] + x[62] <= 1
 edge: x[24] + x[63] <= 1
 edge: x[24] + x[73] <= 1
 edge: x[24] + x[76] <= 1
 edge: x[24] + x[84] <= 1
 edge: x[24] + x[88] <= 1
 edge: x[24] + x[91] <= 1
 edge: x[24] + x[112] <= 1
 edge: x[24] + x[120] <= 1
 edge: x[25] + x[3] <= 1
 edge: x[25] + x[42] <= 1
 edge: x[25] + x[46] <= 1
 edge: x[25] + x[55] <= 1
 edge: x[25] + x[69] <= 1
 edge: x[25] + x[74] <= 1
 edge: x[25] + x[106] <= 1
 edge: x[25] + x[111] <= 1
 edge: x[3] + x[35] <= 1
 edge: x[3] + x[38] <= 1
 edge: x[3] + x[41] <= 1
 edge: x[3] + x[56] <= 1
 edge: x[3] + x[62] <= 1
 edge: x[3] + x[63] <= 1
 edge: x[3] + x[88] <= 1
 edge: x[3] + x[112] <= 1
 edge: x[3] + x[115] <= 1
 edge: x[3] + x[116] <= 1
 edge: x[27] + x[31] <= 1
 edge: x[27] + x[36] <= 1
 edge: x[27] + x[51] <= 1
 edge: x[27] + x[70] <= 1
 edge: x[27] + x[92] <= 1
 edge: x[27] + x[98] <= 1
 edge: x[27] + x[99] <= 1
 edge: x[27] + x[103] <= 1
 edge: x[27] + x[106] <= 1
 edge: x[27] + x[116] <= 1
 edge: x[27] + x[120] <= 1
 edge: x[27] + x[124] <= 1
 edge: x[28] + x[30] <= 1
 edge: x[28] + x[52] <= 1
 edge: x[28] + x[53] <= 1
 edge: x[28] + x[66] <= 1
 edge: x[28] + x[70] <= 1
 edge: x[28] + x[74] <= 1
 edge: x[28] + x[81] <= 1
 edge: x[29] + x[43] <= 1
 edge: x[29] + x[54] <= 1
 edge: x[29] + x[63] <= 1
 edge: x[29] + x[64] <= 1
 edge: x[29] + x[69] <= 1
 edge: x[29] + x[118] <= 1
 edge: x[30] + x[47] <= 1
 edge: x[30] + x[53] <= 1
 edge: x[30] + x[57] <= 1
 edge: x[30] + x[63] <= 1
 edge: x[30] + x[76] <= 1
 edge: x[31] + x[61] <= 1
 edge: x[31] + x[67] <= 1
 edge: x[31] + x[70] <= 1
 edge: x[31] + x[74] <= 1
 edge: x[31] + x[85] <= 1
 edge: x[31] + x[91] <= 1
 edge: x[31] + x[115] <= 1
 edge: x[31] + x[119] <= 1
 edge: x[32] + x[34] <= 1
 edge: x[32] + x[50] <= 1
 edge: x[32] + x[62] <= 1
 edge: x[32] + x[70] <= 1
 edge: x[32] + x[76] <= 1
 edge: x[32] + x[85] <= 1
 edge: x[32] + x[86] <= 1
 edge: x[32] + x[98] <= 1
 edge: x[32] + x[101] <= 1
 edge: x[32] + x[103] <= 1
 edge: x[32] + x[105] <= 1
 edge: x[32] + x[112] <= 1
 edge: x[33] + x[43] <= 1
 edge: x[33] + x[63] <= 1
 edge: x[33] + x[86] <= 1
 edge: x[33] + x[93] <= 1
 edge: x[33] + x[121] <= 1
 edge: x[33] + x[124] <= 1
 edge: x[34] + x[44] <= 1
 edge: x[34] + x[70] <= 1
 edge: x[34] + x[103] <= 1
 edge: x[34] + x[125] <= 1
 edge: x[35] + x[36] <= 1
 edge: x[35] + x[41] <= 1
 edge: x[35] + x[43] <= 1
 edge: x[35] + x[51] <= 1
 edge: x[35] + x[56] <= 1
 edge: x[35] + x[63] <= 1
 edge: x[35] + x[67] <= 1
 edge: x[35] + x[68] <= 1
 edge: x[35] + x[76] <= 1
 edge: x[35] + x[96] <= 1
 edge: x[35] + x[117] <= 1
 edge: x[36] + x[20] <= 1
 edge: x[36] + x[46] <= 1
 edge: x[36] + x[47] <= 1
 edge: x[36] + x[57] <= 1
 edge: x[36] + x[61] <= 1
 edge: x[36] + x[65] <= 1
 edge: x[36] + x[91] <= 1
 edge: x[36] + x[102] <= 1
 edge: x[36] + x[103] <= 1
 edge: x[20] + x[47] <= 1
 edge: x[20] + x[81] <= 1
 edge: x[20] + x[85] <= 1
 edge: x[20] + x[97] <= 1
 edge: x[20] + x[102] <= 1
 edge: x[20] + x[124] <= 1
 edge: x[37] + x[40] <= 1
 edge: x[37] + x[49] <= 1
 edge: x[37] + x[59] <= 1
 edge: x[37] + x[62] <= 1
 edge: x[37] + x[65] <= 1
 edge: x[37] + x[66] <= 1
 edge: x[37] + x[67] <= 1
 edge: x[37] + x[77] <= 1
 edge: x[37] + x[82] <= 1
 edge: x[37] + x[88] <= 1
 edge: x[38] + x[56] <= 1
 edge: x[38] + x[63] <= 1
 edge: x[38] + x[88] <= 1
 edge: x[38] + x[94] <= 1
 edge: x[38] + x[103] <= 1
 edge: x[38] + x[116] <= 1
 edge: x[39] + x[26] <= 1
 edge: x[39] + x[63] <= 1
 edge: x[39] + x[72] <= 1
 edge: x[39] + x[74] <= 1
 edge: x[39] + x[79] <= 1
 edge: x[39] + x[94] <= 1
 edge: x[39] + x[105] <= 1
 edge: x[26] + x[46] <= 1
 edge: x[26] + x[57] <= 1
 edge: x[26] + x[65] <= 1
 edge: x[26] + x[72] <= 1
 edge: x[26] + x[82] <= 1
 edge: x[26] + x[88] <= 1
 edge: x[26] + x[93] <= 1
 edge: x[26] + x[116] <= 1
 edge: x[26] + x[117] <= 1
 edge: x[40] + x[71] <= 1
 edge: x[40] + x[72] <= 1
 edge: x[40] + x[76] <= 1
 edge: x[40] + x[82] <= 1
 edge: x[40] + x[85] <= 1
 edge: x[40] + x[92] <= 1
 edge: x[40] + x[111] <= 1
 edge: x[40] + x[119] <= 1
 edge: x[40] + x[124] <= 1
 edge: x[41] + x[50] <= 1
 edge: x[41] + x[51] <= 1
 edge: x[41] + x[80] <= 1
 edge: x[41] + x[89] <= 1
 edge: x[41] + x[108] <= 1
 edge: x[41] + x[110] <= 1
 edge: x[41] + x[122] <= 1
 edge: x[42] + x[51] <= 1
 edge: x[42] + x[59] <= 1
 edge: x[42] + x[64] <= 1
 edge: x[42] + x[84] <= 1
 edge: x[42] + x[88] <= 1
 edge: x[42] + x[102] <= 1
 edge: x[42] + x[106] <= 1
 edge: x[42] + x[107] <= 1
 edge: x[42] + x[108] <= 1
 edge: x[42] + x[122] <= 1
 edge: x[43] + x[49] <= 1
 edge: x[43] + x[55] <= 1
 edge: x[43] + x[57] <= 1
 edge: x[43] + x[68] <= 1
 edge: x[43] + x[78] <= 1
 edge: x[44] + x[53] <= 1
 edge: x[44] + x[56] <= 1
 edge: x[44] + x[87] <= 1
 edge: x[44] + x[90] <= 1
 edge: x[44] + x[97] <= 1
 edge: x[44] + x[120] <= 1
 edge: x[44] + x[122] <= 1
 edge: x[45] + x[62] <= 1
 edge: x[45] + x[64] <= 1
 edge: x[45] + x[67] <= 1
 edge: x[45] + x[83] <= 1
 edge: x[45] + x[89] <= 1
 edge: x[45] + x[93] <= 1
 edge: x[45] + x[107] <= 1
 edge: x[45] + x[122] <= 1
 edge: x[46] + x[47] <= 1
 edge: x[46] + x[91] <= 1
 edge: x[46] + x[106] <= 1
 edge: x[46] + x[111] <= 1
 edge: x[47] + x[50] <= 1
 edge: x[47] + x[61] <= 1
 edge: x[47] + x[67] <= 1
 edge: x[47] + x[99] <= 1
 edge: x[47] + x[103] <= 1
 edge: x[47] + x[105] <= 1
 edge: x[47] + x[115] <= 1
 edge: x[47] + x[120] <= 1
 edge: x[47] + x[124] <= 1
 edge: x[48] + x[51] <= 1
 edge: x[48] + x[52] <= 1
 edge: x[48] + x[54] <= 1
 edge: x[48] + x[65] <= 1
 edge: x[48] + x[73] <= 1
 edge: x[48] + x[86] <= 1
 edge: x[48] + x[93] <= 1
 edge: x[48] + x[100] <= 1
 edge: x[48] + x[111] <= 1
 edge: x[49] + x[52] <= 1
 edge: x[49] + x[55] <= 1
 edge: x[49] + x[58] <= 1
 edge: x[49] + x[78] <= 1
 edge: x[49] + x[84] <= 1
 edge: x[49] + x[98] <= 1
 edge: x[49] + x[99] <= 1
 edge: x[49] + x[104] <= 1
 edge: x[49] + x[107] <= 1
 edge: x[49] + x[110] <= 1
 edge: x[49] + x[114] <= 1
 edge: x[49] + x[125] <= 1
 edge: x[50] + x[55] <= 1
 edge: x[50] + x[57] <= 1
 edge: x[50] + x[73] <= 1
 edge: x[50] + x[83] <= 1
 edge: x[50] + x[91] <= 1
 edge: x[50] + x[110] <= 1
 edge: x[50] + x[117] <= 1
 edge: x[51] + x[59] <= 1
 edge: x[51] + x[63] <= 1
 edge: x[51] + x[73] <= 1
 edge: x[51] + x[82] <= 1
 edge: x[51] + x[89] <= 1
 edge: x[51] + x[106] <= 1
 edge: x[51] + x[107] <= 1
 edge: x[51] + x[108] <= 1
 edge: x[51] + x[114] <= 1
 edge: x[51] + x[117] <= 1
 edge: x[51] + x[122] <= 1
 edge: x[52] + x[58] <= 1
 edge: x[52] + x[61] <= 1
 edge: x[52] + x[63] <= 1
 edge: x[52] + x[80] <= 1
 edge: x[52] + x[92] <= 1
 edge: x[52] + x[102] <= 1
 edge: x[52] + x[111] <= 1
 edge: x[52] + x[118] <= 1
 edge: x[52] + x[121] <= 1
 edge: x[53] + x[62] <= 1
 edge: x[53] + x[68] <= 1
 edge: x[53] + x[84] <= 1
 edge: x[53] + x[90] <= 1
 edge: x[53] + x[91] <= 1
 edge: x[53] + x[111] <= 1
 edge: x[53] + x[113] <= 1
 edge: x[53] + x[115] <= 1
 edge: x[53] + x[122] <= 1
 edge: x[54] + x[55] <= 1
 edge: x[54] + x[62] <= 1
 edge: x[54] + x[83] <= 1
 edge: x[54] + x[97] <= 1
 edge: x[54] + x[112] <= 1
 edge: x[54] + x[118] <= 1
 edge: x[55] + x[58] <= 1
 edge: x[55] + x[62] <= 1
 edge: x[55] + x[64] <= 1
 edge: x[55] + x[77] <= 1
 edge: x[55] + x[97] <= 1
 edge: x[55] + x[119] <= 1
 edge: x[55] + x[124] <= 1
 edge: x[56] + x[60] <= 1
 edge: x[56] + x[62] <= 1
 edge: x[56] + x[71] <= 1
 edge: x[56] + x[84] <= 1
 edge: x[56] + x[99] <= 1
 edge: x[56] + x[105] <= 1
 edge: x[56] + x[118] <= 1
 edge: x[57] + x[59] <= 1
 edge: x[57] + x[60] <= 1
 edge: x[57] + x[64] <= 1
 edge: x[57] + x[84] <= 1
 edge: x[57] + x[114] <= 1
 edge: x[58] + x[61] <= 1
 edge: x[58] + x[64] <= 1
 edge: x[58] + x[65] <= 1
 edge: x[58] + x[77] <= 1
 edge: x[58] + x[82] <= 1
 edge: x[58] + x[97] <= 1
 edge: x[58] + x[100] <= 1
 edge: x[58] + x[101] <= 1
 edge: x[58] + x[108] <= 1
 edge: x[58] + x[112] <= 1
 edge: x[58] + x[119] <= 1
 edge: x[59] + x[69] <= 1
 edge: x[59] + x[74] <= 1
 edge: x[59] + x[93] <= 1
 edge: x[59] + x[103] <= 1
 edge: x[59] + x[122] <= 1
 edge: x[60] + x[77] <= 1
 edge: x[60] + x[95] <= 1
 edge: x[60] + x[110] <= 1
 edge: x[60] + x[125] <= 1
 edge: x[61] + x[77] <= 1
 edge: x[61] + x[93] <= 1
 edge: x[61] + x[95] <= 1
 edge: x[61] + x[96] <= 1
 edge: x[61] + x[111] <= 1
 edge: x[62] + x[66] <= 1
 edge: x[62] + x[75] <= 1
 edge: x[62] + x[89] <= 1
 edge: x[62] + x[90] <= 1
 edge: x[62] + x[92] <= 1
 edge: x[62] + x[111] <= 1
 edge: x[62] + x[125] <= 1
 edge: x[63] + x[69] <= 1
 edge: x[63] + x[84] <= 1
 edge: x[63] + x[123] <= 1
 edge: x[63] + x[124] <= 1
 edge: x[64] + x[66] <= 1
 edge: x[64] + x[77] <= 1
 edge: x[64] + x[91] <= 1
 edge: x[64] + x[106] <= 1
 edge: x[64] + x[108] <= 1
 edge: x[64] + x[115] <= 1
 edge: x[64] + x[119] <= 1
 edge: x[64] + x[121] <= 1
 edge: x[65] + x[69] <= 1
 edge: x[65] + x[75] <= 1
 edge: x[65] + x[85] <= 1
 edge: x[65] + x[103] <= 1
 edge: x[66] + x[74] <= 1
 edge: x[66] + x[75] <= 1
 edge: x[66] + x[101] <= 1
 edge: x[66] + x[102] <= 1
 edge: x[66] + x[108] <= 1
 edge: x[66] + x[112] <= 1
 edge: x[66] + x[122] <= 1
 edge: x[67] + x[69] <= 1
 edge: x[67] + x[116] <= 1
 edge: x[68] + x[80] <= 1
 edge: x[68] + x[86] <= 1
 edge: x[68] + x[91] <= 1
 edge: x[68] + x[97] <= 1
 edge: x[68] + x[116] <= 1
 edge: x[68] + x[119] <= 1
 edge: x[69] + x[77] <= 1
 edge: x[69] + x[78] <= 1
 edge: x[69] + x[79] <= 1
 edge: x[69] + x[83] <= 1
 edge: x[69] + x[96] <= 1
 edge: x[69] + x[97] <= 1
 edge: x[69] + x[99] <= 1
 edge: x[69] + x[103] <= 1
 edge: x[69] + x[109] <= 1
 edge: x[70] + x[90] <= 1
 edge: x[70] + x[93] <= 1
 edge: x[70] + x[94] <= 1
 edge: x[70] + x[106] <= 1
 edge: x[70] + x[118] <= 1
 edge: x[71] + x[87] <= 1
 edge: x[71] + x[94] <= 1
 edge: x[71] + x[98] <= 1
 edge: x[71] + x[110] <= 1
 edge: x[71] + x[113] <= 1
 edge: x[71] + x[119] <= 1
 edge: x[72] + x[73] <= 1
 edge: x[72] + x[78] <= 1
 edge: x[72] + x[87] <= 1
 edge: x[72] + x[91] <= 1
 edge: x[72] + x[107] <= 1
 edge: x[72] + x[113] <= 1
 edge: x[72] + x[124] <= 1
 edge: x[73] + x[92] <= 1
 edge: x[73] + x[97] <= 1
 edge: x[73] + x[105] <= 1
 edge: x[74] + x[79] <= 1
 edge: x[74] + x[82] <= 1
 edge: x[74] + x[89] <= 1
 edge: x[74] + x[92] <= 1
 edge: x[74] + x[104] <= 1
 edge: x[74] + x[107] <= 1
 edge: x[75] + x[96] <= 1
 edge: x[75] + x[98] <= 1
 edge: x[75] + x[109] <= 1
 edge: x[76] + x[80] <= 1
 edge: x[76] + x[83] <= 1
 edge: x[76] + x[87] <= 1
 edge: x[76] + x[94] <= 1
 edge: x[76] + x[99] <= 1
 edge: x[76] + x[104] <= 1
 edge: x[76] + x[110] <= 1
 edge: x[77] + x[84] <= 1
 edge: x[77] + x[95] <= 1
 edge: x[77] + x[96] <= 1
 edge: x[77] + x[97] <= 1
 edge: x[77] + x[101] <= 1
 edge: x[77] + x[106] <= 1
 edge: x[77] + x[107] <= 1
 edge: x[77] + x[110] <= 1
 edge: x[78] + x[82] <= 1
 edge: x[78] + x[84] <= 1
 edge: x[78] + x[91] <= 1
 edge: x[78] + x[110] <= 1
 edge: x[78] + x[112] <= 1
 edge: x[78] + x[115] <= 1
 edge: x[79] + x[85] <= 1
 edge: x[79] + x[89] <= 1
 edge: x[79] + x[111] <= 1
 edge: x[80] + x[82] <= 1
 edge: x[80] + x[91] <= 1
 edge: x[80] + x[97] <= 1
 edge: x[80] + x[105] <= 1
 edge: x[80] + x[106] <= 1
 edge: x[80] + x[114] <= 1
 edge: x[80] + x[117] <= 1
 edge: x[80] + x[125] <= 1
 edge: x[81] + x[82] <= 1
 edge: x[81] + x[86] <= 1
 edge: x[81] + x[91] <= 1
 edge: x[81] + x[94] <= 1
 edge: x[81] + x[123] <= 1
 edge: x[82] + x[86] <= 1
 edge: x[82] + x[106] <= 1
 edge: x[82] + x[117] <= 1
 edge: x[83] + x[93] <= 1
 edge: x[83] + x[98] <= 1
 edge: x[83] + x[104] <= 1
 edge: x[83] + x[105] <= 1
 edge: x[83] + x[108] <= 1
 edge: x[83] + x[114] <= 1
 edge: x[83] + x[123] <= 1
 edge: x[84] + x[89] <= 1
 edge: x[84] + x[95] <= 1
 edge: x[84] + x[97] <= 1
 edge: x[84] + x[101] <= 1
 edge: x[84] + x[102] <= 1
 edge: x[84] + x[110] <= 1
 edge: x[84] + x[116] <= 1
 edge: x[84] + x[122] <= 1
 edge: x[85] + x[100] <= 1
 edge: x[85] + x[104] <= 1
 edge: x[85] + x[125] <= 1
 edge: x[86] + x[92] <= 1
 edge: x[86] + x[102] <= 1
 edge: x[88] + x[91] <= 1
 edge: x[88] + x[105] <= 1
 edge: x[88] + x[106] <= 1
 edge: x[88] + x[107] <= 1
 edge: x[88] + x[123] <= 1
 edge: x[89] + x[98] <= 1
 edge: x[89] + x[99] <= 1
 edge: x[89] + x[110] <= 1
 edge: x[89] + x[115] <= 1
 edge: x[89] + x[122] <= 1
 edge: x[90] + x[94] <= 1
 edge: x[90] + x[97] <= 1
 edge: x[91] + x[93] <= 1
 edge: x[91] + x[96] <= 1
 edge: x[91] + x[120] <= 1
 edge: x[92] + x[95] <= 1
 edge: x[92] + x[115] <= 1
 edge: x[92] + x[123] <= 1
 edge: x[93] + x[97] <= 1
 edge: x[93] + x[106] <= 1
 edge: x[93] + x[115] <= 1
 edge: x[93] + x[118] <= 1
 edge: x[93] + x[121] <= 1
 edge: x[93] + x[123] <= 1
 edge: x[94] + x[95] <= 1
 edge: x[94] + x[114] <= 1
 edge: x[96] + x[97] <= 1
 edge: x[96] + x[113] <= 1
 edge: x[96] + x[117] <= 1
 edge: x[96] + x[122] <= 1
 edge: x[97] + x[101] <= 1
 edge: x[97] + x[110] <= 1
 edge: x[98] + x[111] <= 1
 edge: x[98] + x[114] <= 1
 edge: x[99] + x[120] <= 1
 edge: x[99] + x[125] <= 1
 edge: x[100] + x[106] <= 1
 edge: x[100] + x[115] <= 1
 edge: x[101] + x[122] <= 1
 edge: x[102] + x[104] <= 1
 edge: x[102] + x[124] <= 1
 edge: x[103] + x[115] <= 1
 edge: x[103] + x[117] <= 1
 edge: x[104] + x[105] <= 1
 edge: x[104] + x[122] <= 1
 edge: x[105] + x[124] <= 1
 edge: x[105] + x[125] <= 1
 edge: x[107] + x[116] <= 1
 edge: x[107] + x[122] <= 1
 edge: x[108] + x[110] <= 1
 edge: x[108] + x[113] <= 1
 edge: x[108] + x[119] <= 1
 edge: x[108] + x[122] <= 1
 edge: x[109] + x[115] <= 1
 edge: x[109] + x[118] <= 1
 edge: x[110] + x[115] <= 1
 edge: x[110] + x[118] <= 1
 edge: x[110] + x[124] <= 1
 edge: x[110] + x[125] <= 1
 edge: x[112] + x[113] <= 1
 edge: x[113] + x[121] <= 1
 edge: x[114] + x[115] <= 1
 edge: x[114] + x[119] <= 1
 edge: x[115] + x[118] <= 1
 edge: x[116] + x[119] <= 1
 edge: x[116] + x[123] <= 1
 edge: x[117] + x[119] <= 1
 edge: x[117] + x[124] <= 1
 edge: x[118] + x[119] <= 1
 edge: x[118] + x[121] <= 1
 edge: x[122] + x[124] <= 1
Bounds
Binaries
 x[5] x[1] x[6] x[2] x[8] x[4] x[9] x[11] x[13] x[14] x[7] x[15] x[16]
 x[10] x[12] x[17] x[18] x[19] x[21] x[22] x[23] x[24] x[25] x[3] x[27]
 x[28] x[29] x[30] x[31] x[32] x[33] x[34] x[35] x[36] x[20] x[37] x[38]
 x[39] x[26] x[40] x[41] x[42] x[43] x[44] x[45] x[46] x[47] x[48] x[49]
 x[50] x[51] x[52] x[53] x[54] x[55] x[56] x[57] x[58] x[59] x[60] x[61]
 x[62] x[63] x[64] x[65] x[66] x[67] x[68] x[69] x[70] x[71] x[72] x[73]
 x[74] x[75] x[76] x[77] x[78] x[79] x[80] x[81] x[82] x[83] x[84] x[85]
 x[86] x[87] x[88] x[89] x[90] x[91] x[92] x[93] x[94] x[95] x[96] x[97]
 x[98] x[99] x[100] x[101] x[102] x[103] x[104] x[105] x[106] x[107] x[108]
 x[109] x[110] x[111] x[112] x[113] x[114] x[115] x[116] x[117] x[118]
 x[119] x[120] x[121] x[122] x[123] x[124] x[125]
End
